SECTION Graph 
Nodes 13
Edges 12
E 5 10 4103202
E 1 9 620660
E 1 8 694882
E 9 11 707657
E 10 13 1302562
E 2 11 2902654
E 11 12 1606529
E 4 13 668791
E 4 12 2178665
E 3 12 440610
E 6 7 3313254
E 6 13 1086852
END 

SECTION Terminals 
Terminals 10
TP 1 6
TP 2 7
TP 3 8
TP 4 9
TP 5 10
END 
